proyfinal/src/viki/013/experimentInOfficeAgust.take6.output/aa0cad97-aba6-4003-a262-827d5cac869e.als.out
Reading from standard input... Use '--help' for help.
============================[ Problem Statistics ]=============================
|                                                                             |
|  Number of variables:         87638                                         |
|  Number of clauses:          161767                                         |
|  Parse time:                   0.04 s                                       |
|                                                                             |
============================[ Search Statistics ]==============================
| Conflicts |          ORIGINAL         |          LEARNT          | Progress |
|           |    Vars  Clauses Literals |    Limit  Clauses Lit/Cl |          |
===============================================================================
|       100 |   63894   110632   276385 |    40565      100     14 | 27.093 % |
|       250 |   63894   110632   276385 |    44621      250     25 | 27.093 % |
|       475 |   55298    84859   212937 |    49083      470     32 | 36.902 % |
|       812 |   55208    84462   212037 |    53992      762     38 | 37.004 % |
|      1318 |   54539    82056   206063 |    59391     1181     45 | 37.768 % |
|      2077 |   54435    81684   205172 |    65330     1934     60 | 37.887 % |
|      3216 |   54291    81443   204545 |    71863     3071     54 | 38.051 % |
|      4924 |   53928    79606   199957 |    79049     4611     56 | 38.465 % |
|      7486 |   53856    79316   199284 |    86954     7153     54 | 38.547 % |
|     11330 |   53742    78843   198165 |    95650    10059     54 | 38.677 % |
|     17096 |   53589    78475   197319 |   105215    15795     62 | 38.852 % |
===============================================================================
restarts              : 64
conflicts             : 19314          (7777 /sec)
decisions             : 74475          (0.00 % random) (29990 /sec)
propagations          : 28067585       (11302244 /sec)
conflict literals     : 1179493        (44.36 % deleted)
Memory used           : 27.87 MB
CPU time              : 2.48336 s

INDETERMINATE
